32	0

0	2	3	2
10	2	6	7
5	2	4	5
8	2	8	9
4	2	6	7
10	3	11	13	18
3	2	8	9
2	2	10	14
2	2	10	14
3	3	11	12	15
6	3	16	17	21
3	3	13	16	18
7	2	17	21
9	3	16	17	18
7	3	16	17	21
6	3	19	20	23
4	3	19	20	23
5	4	19	20	21	23
6	2	22	24
5	2	22	24
9	2	22	24
5	3	25	26	27
9	3	25	26	27
4	3	25	26	27
3	3	29	30	31
1	3	28	29	31
1	3	28	29	31
3	1	30
4	1	32
5	1	32
6	1	32
0	0
